(set-info :smt-lib-version 2.6)
(set-info :category "crafted")
(set-logic QF_FF)
(define-sort FF0 () (_ FiniteField 52435875175126190479447740508185965837690552500527637822603658699938581184513))
(declare-fun return_n3_alt () FF0)
(declare-fun d_n1_alt () FF0)
(declare-fun mul_n12_alt () FF0)
(declare-fun f_n5_alt () FF0)
(declare-fun mul_n13_alt () FF0)
(declare-fun mul_n14_alt () FF0)
(declare-fun b_n4_alt () FF0)
(declare-fun mul_n7_alt () FF0)
(declare-fun e_n0_alt () FF0)
(declare-fun is_zero_n11_alt () FF0)
(declare-fun a_n6_alt () FF0)
(declare-fun mul_n9_alt () FF0)
(declare-fun c_n2_alt () FF0)
(declare-fun is_zero_inv_n10_alt () FF0)
(declare-fun mul_n8_alt () FF0)
(declare-fun return_n3 () FF0)
(declare-fun d_n1 () FF0)
(declare-fun mul_n12 () FF0)
(declare-fun f_n5 () FF0)
(declare-fun mul_n13 () FF0)
(declare-fun mul_n14 () FF0)
(declare-fun b_n4 () FF0)
(declare-fun mul_n7 () FF0)
(declare-fun e_n0 () FF0)
(declare-fun is_zero_n11 () FF0)
(declare-fun a_n6 () FF0)
(declare-fun mul_n9 () FF0)
(declare-fun c_n2 () FF0)
(declare-fun is_zero_inv_n10 () FF0)
(declare-fun mul_n8 () FF0)
(assert 
  (let ((let0 return_n3_alt))
  (let ((let1 (as ff1 FF0)))
  (let ((let2 (as ff52435875175126190479447740508185965837690552500527637822603658699938581184512 FF0)))
  (let ((let3 d_n1_alt))
  (let ((let4 (ff.mul let3 let2)))
  (let ((let5 mul_n12_alt))
  (let ((let6 (ff.mul let5 let2)))
  (let ((let7 f_n5_alt))
  (let ((let8 (ff.mul let7 let2)))
  (let ((let9 mul_n13_alt))
  (let ((let10 (ff.add let9 let8 let6 let4 let1)))
  (let ((let11 mul_n14_alt))
  (let ((let12 b_n4_alt))
  (let ((let13 (ff.add let12 let8 let11)))
  (let ((let14 (ff.mul let13 let10)))
  (let ((let15 (= let14 let0)))
  (let ((let16 (ff.mul let12 let2)))
  (let ((let17 (ff.add let16 let1)))
  (let ((let18 (as ff2 FF0)))
  (let ((let19 (ff.mul let7 let18)))
  (let ((let20 (ff.mul let19 let17)))
  (let ((let21 (= let20 let11)))
  (let ((let22 (ff.add let5 let3)))
  (let ((let23 (ff.mul let19 let22)))
  (let ((let24 (= let23 let9)))
  (let ((let25 mul_n7_alt))
  (let ((let26 e_n0_alt))
  (let ((let27 (ff.add let26 let4 let25)))
  (let ((let28 is_zero_n11_alt))
  (let ((let29 (ff.mul let28 let27)))
  (let ((let30 (= let29 let5)))
  (let ((let31 (as ff0 FF0)))
  (let ((let32 (as ff4 FF0)))
  (let ((let33 a_n6_alt))
  (let ((let34 (ff.mul let33 let2)))
  (let ((let35 mul_n9_alt))
  (let ((let36 (ff.mul let35 let2)))
  (let ((let37 (ff.mul let25 let2)))
  (let ((let38 c_n2_alt))
  (let ((let39 (ff.mul let38 let2)))
  (let ((let40 (ff.mul let26 let2)))
  (let ((let41 (ff.add let40 let39 let37 let36 let34 let32)))
  (let ((let42 (ff.mul let28 let41)))
  (let ((let43 (= let42 let31)))
  (let ((let44 (ff.mul let28 let2)))
  (let ((let45 (ff.add let44 let1)))
  (let ((let46 is_zero_inv_n10_alt))
  (let ((let47 (ff.mul let46 let41)))
  (let ((let48 (= let47 let45)))
  (let ((let49 mul_n8_alt))
  (let ((let50 (ff.mul let49 let3)))
  (let ((let51 (= let50 let35)))
  (let ((let52 (ff.mul let33 let12)))
  (let ((let53 (= let52 let49)))
  (let ((let54 (ff.add let40 let38)))
  (let ((let55 (ff.mul let26 let54)))
  (let ((let56 (= let55 let25)))
  (let ((let57 (and let56 let53 let51 let48 let43 let30 let24 let21 let15)))
  (let ((let58 return_n3))
  (let ((let59 d_n1))
  (let ((let60 (ff.mul let59 let2)))
  (let ((let61 mul_n12))
  (let ((let62 (ff.mul let61 let2)))
  (let ((let63 f_n5))
  (let ((let64 (ff.mul let63 let2)))
  (let ((let65 mul_n13))
  (let ((let66 (ff.add let65 let64 let62 let60 let1)))
  (let ((let67 mul_n14))
  (let ((let68 b_n4))
  (let ((let69 (ff.add let68 let64 let67)))
  (let ((let70 (ff.mul let69 let66)))
  (let ((let71 (= let70 let58)))
  (let ((let72 (ff.mul let68 let2)))
  (let ((let73 (ff.add let72 let1)))
  (let ((let74 (ff.mul let63 let18)))
  (let ((let75 (ff.mul let74 let73)))
  (let ((let76 (= let75 let67)))
  (let ((let77 (ff.add let61 let59)))
  (let ((let78 (ff.mul let74 let77)))
  (let ((let79 (= let78 let65)))
  (let ((let80 mul_n7))
  (let ((let81 e_n0))
  (let ((let82 (ff.add let81 let60 let80)))
  (let ((let83 is_zero_n11))
  (let ((let84 (ff.mul let83 let82)))
  (let ((let85 (= let84 let61)))
  (let ((let86 a_n6))
  (let ((let87 (ff.mul let86 let2)))
  (let ((let88 mul_n9))
  (let ((let89 (ff.mul let88 let2)))
  (let ((let90 (ff.mul let80 let2)))
  (let ((let91 c_n2))
  (let ((let92 (ff.mul let91 let2)))
  (let ((let93 (ff.mul let81 let2)))
  (let ((let94 (ff.add let93 let92 let90 let89 let87 let32)))
  (let ((let95 (ff.mul let83 let94)))
  (let ((let96 (= let95 let31)))
  (let ((let97 (ff.mul let83 let2)))
  (let ((let98 (ff.add let97 let1)))
  (let ((let99 is_zero_inv_n10))
  (let ((let100 (ff.mul let99 let94)))
  (let ((let101 (= let100 let98)))
  (let ((let102 mul_n8))
  (let ((let103 (ff.mul let102 let59)))
  (let ((let104 (= let103 let88)))
  (let ((let105 (ff.mul let86 let68)))
  (let ((let106 (= let105 let102)))
  (let ((let107 (ff.add let93 let91)))
  (let ((let108 (ff.mul let81 let107)))
  (let ((let109 (= let108 let80)))
  (let ((let110 (and let109 let106 let104 let101 let96 let85 let79 let76 let71)))
  (let ((let111 (= let58 let0)))
  (let ((let112 (not let111)))
  (let ((let113 (= let86 let33)))
  (let ((let114 (= let81 let26)))
  (let ((let115 (= let68 let12)))
  (let ((let116 (= let63 let7)))
  (let ((let117 (= let91 let38)))
  (let ((let118 (= let59 let3)))
  (let ((let119 (and let118 let117 let116 let115 let114 let113)))
  (let ((let120 (and let119 let112 let110 let57)))
  let120
)))))))))))))))))))))))))))))))))))))))))))))))))))))))))))))))))))))))))))))))))))))))))))))))))))))))))))))))))))))))))
)
(check-sat)
